proyfinal/src/viki/013/experimentInOfficeAgust.take6.output/32bf1c27-13de-4c01-a3f6-7a82df62807b.als.dat
{'cnf.clauses': '118081',
 'cnf.totvars': '69608',
 'conflict literals': '6',
 'conflicts': '6',
 'decisions': '5575',
 'memused.mb': '17.38',
 'outcome': 'UNSAT',
 'propagations': '30380',
 'restarts': '1',
 'solver.msecs': 31,
 'task.msecs': 82}
