proyfinal/src/viki/013/experimentInOfficeAgust.take6.output/32bf1c27-13de-4c01-a3f6-7a82df62807b.als.out
Reading from standard input... Use '--help' for help.
============================[ Problem Statistics ]=============================
|                                                                             |
|  Number of variables:         69608                                         |
|  Number of clauses:          118081                                         |
|  Parse time:                   0.02 s                                       |
|                                                                             |
============================[ Search Statistics ]==============================
| Conflicts |          ORIGINAL         |          LEARNT          | Progress |
|           |    Vars  Clauses Literals |    Limit  Clauses Lit/Cl |          |
===============================================================================
===============================================================================
restarts              : 1
conflicts             : 6              (192 /sec)
decisions             : 5575           (0.00 % random) (177979 /sec)
propagations          : 30380          (969863 /sec)
conflict literals     : 6              (0.00 % deleted)
Memory used           : 17.38 MB
CPU time              : 0.031324 s

UNSATISFIABLE
